NAME : XML100_1271_15
DIMENSION : 101
NB_CLUSTERS : 4
CLUSTERING_ALG : DBSCAN
CLUSTERING_PARAMS : eps(89), minSamples(3)
CLUSTERS
1 0
2 1 2 3 4 7 8 9 11 12 13 15 16 18 19 20 21 22 23 24 26 28 29 30 31 32 34 35 38 39 40 41 42 45 46 48 49 50 51 53 57 60 61 63 64 65 67 68 69 70 72 73 74 75 77 80 81 84 89 90 92 93 94 95 98 99 100
3 5 6 10 14 17 25 33 36 37 43 44 47 54 55 56 58 59 62 78 79 82 83 85 86 87 91 96 97
4 27 52 66 71 76 88
EOF